
Gurobi 10.0.1 (win64) logging started Sun Sep 17 11:27:57 2023

Set parameter LogFile to value "./results-heuristic-start//log/FTQL_makespan.log"
Gurobi Optimizer version 10.0.1 build v10.0.1rc0 (win64)

CPU model: AMD Ryzen 7 3700X 8-Core Processor, instruction set [SSE2|AVX|AVX2]
Thread count: 8 physical cores, 16 logical processors, using up to 16 threads

Optimize a model with 195 rows, 625 columns and 664 nonzeros
Model fingerprint: 0xdff8b692
Variable types: 24 continuous, 601 integer (600 binary)
Coefficient statistics:
  Matrix range     [1e+00, 1e+06]
  Objective range  [1e+00, 1e+00]
  Bounds range     [1e+00, 1e+00]
  RHS range        [1e+00, 3e+06]

Warning: Completing partial solution with 577 unfixed non-continuous variables out of 601
User MIP start did not produce a new incumbent solution
User MIP start violates constraint initial_start_time_job0_stage0_machine4_constraint by 420.000000000

Presolve removed 77 rows and 551 columns
Presolve time: 0.00s
Presolved: 118 rows, 74 columns, 338 nonzeros
Variable types: 24 continuous, 50 integer (49 binary)
Found heuristic solution: objective 116151.00000
Found heuristic solution: objective 113628.00000

Root relaxation: objective 5.088000e+04, 36 iterations, 0.00 seconds (0.00 work units)

    Nodes    |    Current Node    |     Objective Bounds      |     Work
 Expl Unexpl |  Obj  Depth IntInf | Incumbent    BestBd   Gap | It/Node Time

     0     0 50880.0000    0   27 113628.000 50880.0000  55.2%     -    0s
Another try with MIP start
H    0     0                    98042.000000 53879.0000  45.0%     -    0s
H    0     0                    90100.000000 53879.0000  40.2%     -    0s
H    0     0                    83642.000000 53879.0000  35.6%     -    0s
     0     0 64720.0000    0   20 83642.0000 64720.0000  22.6%     -    0s
     0     0 64820.0000    0   17 83642.0000 64820.0000  22.5%     -    0s
     0     0 64820.0000    0   11 83642.0000 64820.0000  22.5%     -    0s
     0     0 64841.6499    0   24 83642.0000 64841.6499  22.5%     -    0s
H    0     0                    82217.000000 64841.6499  21.1%     -    0s
H    0     0                    82216.000000 64841.6499  21.1%     -    0s
     0     0 64878.0000    0   21 82216.0000 64878.0000  21.1%     -    0s
     0     0 64878.0000    0   20 82216.0000 64878.0000  21.1%     -    0s
H    0     0                    80076.000000 64878.0000  19.0%     -    0s
H    0     0                    79602.000000 64878.0000  18.5%     -    0s
H    0     0                    79516.000000 64878.0000  18.4%     -    0s
H    0     0                    76865.000000 64878.0000  15.6%     -    0s
     0     0 64878.0000    0   21 76865.0000 64878.0000  15.6%     -    0s
     0     0 64909.9392    0   23 76865.0000 64909.9392  15.6%     -    0s
H    0     0                    76864.000000 64909.9392  15.6%     -    0s
     0     0 65212.0000    0   25 76864.0000 65212.0000  15.2%     -    0s
     0     0 65212.0000    0   25 76864.0000 65212.0000  15.2%     -    0s
     0     0 65212.0000    0   27 76864.0000 65212.0000  15.2%     -    0s
     0     0 65237.0000    0   25 76864.0000 65237.0000  15.1%     -    0s
H    0     0                    76603.000000 65237.0000  14.8%     -    0s
     0     0 66255.0000    0   25 76603.0000 66255.0000  13.5%     -    0s
     0     0 66392.0000    0   23 76603.0000 66392.0000  13.3%     -    0s
     0     0 66713.0000    0   20 76603.0000 66713.0000  12.9%     -    0s
     0     0 66713.0000    0   20 76603.0000 66713.0000  12.9%     -    0s
H    0     0                    75598.000000 66713.0000  11.8%     -    0s
H    0     2                    75439.000000 66713.0000  11.6%     -    0s
     0     2 66713.0000    0   20 75439.0000 66713.0000  11.6%     -    0s
H    1     4                    75437.000000 66713.0000  11.6%  19.0    0s
H   31    38                    75335.000000 66713.0000  11.4%  19.9    0s
H   74    56                    75334.000000 66713.0000  11.4%  14.0    0s
H  125    67                    74452.000000 66713.0000  10.4%  10.5    0s

Cutting planes:
  Learned: 1
  Gomory: 18
  Implied bound: 41
  MIR: 16
  Inf proof: 1
  RLT: 38
  Relax-and-lift: 24

Explored 1112 nodes (8503 simplex iterations) in 0.15 seconds (0.08 work units)
Thread count was 16 (of 16 available processors)

Solution count 10: 74452 74452 75334 ... 76865

Optimal solution found (tolerance 1.00e-04)
Best objective 7.445200000000e+04, best bound 7.445200000000e+04, gap 0.0000%
Warning: constraint name "precedence between 1,1 to 0,0 if x_[j,l,h,z,i]=1" has a space
Warning: constraint name "precedence between 1,1 to 0,0 if x_[j,l,h,z,i]=1" has a space
Warning: default constraint names used to write mps file
